(set-info :Origin "This instance was generated by: BanditFuzz-- an RL fuzzer for SMT solvers" )
(set-info :Author "Joe Scott, Fed Mora, Vijay Ganesh" )
(set-info :Contact "Joe Scott, joseph.scott@uwaterloo.ca")
(set-logic QF_BV)
(declare-const bool_0 Bool)
(declare-const bool_1 Bool)
(declare-const bool_2 Bool)
(declare-const bool_3 Bool)
(declare-const bool_4 Bool)
(declare-const bv_0 (_ BitVec 32))
(declare-const bv_1 (_ BitVec 32))
(declare-const bv_2 (_ BitVec 32))
(declare-const bv_3 (_ BitVec 32))
(declare-const bv_4 (_ BitVec 32))
(assert (=> (not (=> bool_0 true)) (=> (and false bool_1) (bvult #x48bd26eb  bv_0))))
(assert (bvsle (bvxor (bvshl #x985bb347  #xcc5a3958 ) (bvurem #xf1db7765  bv_2)) (bvsdiv (bvsdiv bv_4 bv_4) (bvxor bv_2 bv_0))))
(assert (bvsgt (bvlshr (bvxor #xe0558910  #x8cf2dcd8 ) (bvsmod bv_1 bv_0)) (bvnand (bvsrem #xfbcb0612  #xb53bf0ca ) (bvudiv #xea46b26f  bv_0))))
(assert (bvugt (bvsub (bvadd bv_0 bv_1) (bvxnor #x1d82da0c  #xdbc1bcc7 )) (bvand (bvurem bv_3 #x651f794c ) (bvsub #xa5834c84  #x83179c84 ))))
(assert (bvult (bvsrem (bvurem #x5e4771d1  bv_0) (bvmul bv_3 bv_2)) (bvmul (bvnand bv_3 bv_1) (bvlshr #x65e1f550  #x5a8bf2b5 ))))
(check-sat)
(exit)
